GPU_version/outputs/r104.out
Total number of lines in the file: 110
Total number of nodes including depot: 101
Customer 1: (35, 35), Demand: 0, Time Window: [0, 230], Service Time: 0
Customer 2: (41, 49), Demand: 10, Time Window: [0, 204], Service Time: 10
Customer 3: (35, 17), Demand: 7, Time Window: [0, 202], Service Time: 10
Customer 4: (55, 45), Demand: 13, Time Window: [0, 197], Service Time: 10
Customer 5: (55, 20), Demand: 19, Time Window: [149, 159], Service Time: 10
calling MST kernel
Post Processing Route
Post 2 opt Processing Route
2-opt between 25 and 27 improved cost from 1611.29 to 1609.62
2-opt between 26 and 27 improved cost from 1609.62 to 1608.47
Elapsed time: 0.683642 seconds
Final Route: 
Route #1: 53 58 
Route #2: 13 94 6 89 
Route #3: 95 97 87 2 57 
Route #4: 15 43 42 
Route #5: 92 37 98 100 
Route #6: 59 99 96 5 60 18 52 83 
Route #7: 8 46 45 82 7 88 
Route #8: 31 70 30 20 66 
Route #9: 62 10 90 32 63 
Route #10: 11 19 48 47 36 49 
Route #11: 64 
Route #12: 84 17 93 85 61 16 
Route #13: 86 44 38 14 91 40 26 
Route #14: 12 80 68 77 
Route #15: 76 50 1 
Route #16: 69 3 79 33 81 
Route #17: 9 71 65 35 51 
Route #18: 78 34 29 24 54 55 25 
Route #19: 21 73 72 74 22 41 
Route #20: 75 56 23 39 
Route #21: 67 4 28 27 
Route #22: Total Distance: 1611.29
Final route is valid
